decision_x1=[0,4];
decision_x2=[0,4];
decision_x3=[0,4];
decision_x4=[0,4];
decision_x5=[0,4];
decision_x6=[0,4];
decision_x7=[0,4];
decision_x8=[0,4];
decision_x9=[0,4];
decision_x10=[0,4];
random_y1=[0,4];
random_y2=[0,4];
random_y3=[0,4];
random_y4=[0,4];
random_y5=[0,4];
constraint_x3_x1=[
0,1,0.22|
0,2,0.58|
0,3,4.7|
0,4,9.8|
1,0,8.2|
1,2,4.5|
1,3,7.1|
1,4,6.6|
2,0,2|
2,1,6.5|
2,3,0.99|
2,4,4.5|
3,0,8.2|
3,1,2.1|
3,2,3.8|
3,4,7.5|
4,0,4.4|
4,1,3.6|
4,2,10|
4,3,4.3|
];
constraint_x3_x2=[
0,1,5|
0,2,1.8|
0,3,5.1|
0,4,0.7|
1,0,5.2|
1,2,7.4|
1,3,8.8|
1,4,5.5|
2,0,8.6|
2,1,2.1|
2,3,5.2|
2,4,5.3|
3,0,5.9|
3,1,8|
3,2,9|
3,4,5.9|
4,0,1.9|
4,1,3.5|
4,2,9.7|
4,3,2.9|
];
constraint_x4_x1=[
0,1,2.4|
0,2,5.9|
0,3,0.55|
0,4,8.4|
1,0,4.7|
1,2,7.3|
1,3,6.9|
1,4,6.6|
2,0,3.7|
2,1,5.4|
2,3,6.6|
2,4,10|
3,0,5.4|
3,1,5.1|
3,2,1.9|
3,4,4.1|
4,0,3|
4,1,6.7|
4,2,5.9|
4,3,5.1|
];
constraint_x4_x2=[
0,1,7|
0,2,3.3|
0,3,5.6|
0,4,2.9|
1,0,4.2|
1,2,3.8|
1,3,4|
1,4,5|
2,0,9.9|
2,1,7.3|
2,3,5.4|
2,4,1|
3,0,8.3|
3,1,8.3|
3,2,9.4|
3,4,8.2|
4,0,7.6|
4,1,7.2|
4,2,2.8|
4,3,6.6|
];
constraint_x5_x2=[
0,1,2.7|
0,2,2.5|
0,3,8.2|
0,4,2.2|
1,0,1.4|
1,2,0.36|
1,3,4.3|
1,4,1.7|
2,0,2.5|
2,1,5.4|
2,3,4.7|
2,4,10|
3,0,0.33|
3,1,4.4|
3,2,6.5|
3,4,0.32|
4,0,4.9|
4,1,7.4|
4,2,5.9|
4,3,1.5|
];
constraint_x5_x3=[
0,1,9.8|
0,2,4.2|
0,3,5.7|
0,4,6.3|
1,0,0.16|
1,2,0.15|
1,3,0.16|
1,4,5.3|
2,0,2.4|
2,1,7.6|
2,3,2.9|
2,4,9.1|
3,0,4.8|
3,1,3.4|
3,2,9.6|
3,4,0.41|
4,0,6.4|
4,1,7.5|
4,2,4.3|
4,3,6.6|
];
constraint_x5_x4=[
0,1,5.4|
0,2,1.4|
0,3,5.9|
0,4,8|
1,0,0.25|
1,2,3.3|
1,3,2.3|
1,4,7.5|
2,0,5.7|
2,1,4.1|
2,3,8.4|
2,4,5.6|
3,0,5.6|
3,1,1.3|
3,2,4.3|
3,4,4.6|
4,0,0.96|
4,1,8.5|
4,2,5.2|
4,3,3.3|
];
constraint_x6_x1=[
0,1,5.8|
0,2,3.5|
0,3,7.9|
0,4,6.6|
1,0,2.6|
1,2,4.7|
1,3,0.28|
1,4,3.9|
2,0,0.22|
2,1,7.4|
2,3,8.8|
2,4,1.4|
3,0,7.9|
3,1,0.37|
3,2,3.7|
3,4,3.4|
4,0,4.3|
4,1,7.3|
4,2,3.8|
4,3,8.9|
];
constraint_x6_x3=[
0,1,0.48|
0,2,1.6|
0,3,8.8|
0,4,7|
1,0,3.6|
1,2,8.6|
1,3,9.3|
1,4,1.2|
2,0,4.6|
2,1,2.6|
2,3,3.6|
2,4,9.1|
3,0,4|
3,1,9.5|
3,2,0.25|
3,4,3.2|
4,0,1.5|
4,1,1.9|
4,2,1.4|
4,3,5|
];
constraint_x7_x1=[
0,1,1.3|
0,2,5.5|
0,3,7.2|
0,4,2.7|
1,0,8.9|
1,2,4.1|
1,3,2.7|
1,4,6.8|
2,0,0.026|
2,1,5.2|
2,3,6.2|
2,4,6.2|
3,0,9.1|
3,1,2.2|
3,2,3.4|
3,4,5.6|
4,0,6|
4,1,3.5|
4,2,4.3|
4,3,1.8|
];
constraint_x7_x2=[
0,1,6.5|
0,2,6.3|
0,3,5.9|
0,4,9.3|
1,0,7|
1,2,0.28|
1,3,3.3|
1,4,5.3|
2,0,6.7|
2,1,2.2|
2,3,8|
2,4,6.4|
3,0,7.1|
3,1,9|
3,2,5.9|
3,4,8.4|
4,0,6.4|
4,1,9.4|
4,2,0.37|
4,3,3.2|
];
constraint_x7_x3=[
0,1,3.2|
0,2,1.3|
0,3,1|
0,4,9.8|
1,0,6.1|
1,2,2.7|
1,3,9.3|
1,4,2.2|
2,0,4.8|
2,1,8.9|
2,3,7.3|
2,4,8.1|
3,0,3.5|
3,1,2.5|
3,2,2.3|
3,4,8.2|
4,0,5|
4,1,4.3|
4,2,9|
4,3,8.7|
];
constraint_x7_x5=[
0,1,2.2|
0,2,1.2|
0,3,7.7|
0,4,2.1|
1,0,2.2|
1,2,0.38|
1,3,8.6|
1,4,8.8|
2,0,3.7|
2,1,5.3|
2,3,7.9|
2,4,7.5|
3,0,6.3|
3,1,2.9|
3,2,8.5|
3,4,6.6|
4,0,7.4|
4,1,3.7|
4,2,9.3|
4,3,6.5|
];
constraint_x8_x1=[
0,1,6.8|
0,2,4.1|
0,3,4.8|
0,4,5.4|
1,0,1.5|
1,2,9.9|
1,3,7.5|
1,4,7.7|
2,0,6.4|
2,1,7.3|
2,3,6.7|
2,4,9.1|
3,0,5.7|
3,1,2.3|
3,2,8|
3,4,2.4|
4,0,6.6|
4,1,4.6|
4,2,4.2|
4,3,8.3|
];
constraint_x8_x5=[
0,1,9.6|
0,2,2.1|
0,3,5.1|
0,4,0.59|
1,0,7.6|
1,2,0.051|
1,3,3|
1,4,7.6|
2,0,0.77|
2,1,5.3|
2,3,9.9|
2,4,8.8|
3,0,7.5|
3,1,7.9|
3,2,8|
3,4,8.2|
4,0,2.9|
4,1,7.9|
4,2,3.3|
4,3,5.1|
];
constraint_x8_x6=[
0,1,9.8|
0,2,7.8|
0,3,8.3|
0,4,2.2|
1,0,6.3|
1,2,6.2|
1,3,5.7|
1,4,2.1|
2,0,1.1|
2,1,3.4|
2,3,7.1|
2,4,8.9|
3,0,8.6|
3,1,5|
3,2,9|
3,4,7.5|
4,0,5.8|
4,1,4.9|
4,2,3.5|
4,3,7.7|
];
constraint_x8_x7=[
0,1,7.3|
0,2,4.2|
0,3,3.9|
0,4,2.6|
1,0,4.6|
1,2,6.9|
1,3,9.7|
1,4,0.58|
2,0,6.7|
2,1,3|
2,3,0.76|
2,4,1.5|
3,0,8.7|
3,1,9.9|
3,2,9.5|
3,4,1.8|
4,0,4.2|
4,1,7.6|
4,2,2|
4,3,4|
];
constraint_x9_x2=[
0,1,1.1|
0,2,7|
0,3,1.4|
0,4,0.68|
1,0,5.8|
1,2,9|
1,3,5|
1,4,2.5|
2,0,4.4|
2,1,8.2|
2,3,6.6|
2,4,0.71|
3,0,6.4|
3,1,3|
3,2,2.3|
3,4,3.6|
4,0,1.2|
4,1,5.3|
4,2,1.3|
4,3,9|
];
constraint_x9_x6=[
0,1,9.2|
0,2,4.8|
0,3,7.6|
0,4,2.2|
1,0,4.3|
1,2,7.4|
1,3,7.4|
1,4,9.4|
2,0,4.1|
2,1,8.9|
2,3,7.5|
2,4,6.2|
3,0,4.3|
3,1,6|
3,2,6.1|
3,4,4.9|
4,0,0.96|
4,1,6.2|
4,2,9.8|
4,3,6.9|
];
constraint_x9_x7=[
0,1,7|
0,2,5.9|
0,3,8.4|
0,4,3.2|
1,0,3.8|
1,2,9|
1,3,0.73|
1,4,7.1|
2,0,9.3|
2,1,0.46|
2,3,2.2|
2,4,6.3|
3,0,0.39|
3,1,5.8|
3,2,1.2|
3,4,2.1|
4,0,3.6|
4,1,9.2|
4,2,9.9|
4,3,5.1|
];
constraint_x9_x8=[
0,1,7|
0,2,0.86|
0,3,2.7|
0,4,6.1|
1,0,6.6|
1,2,2.1|
1,3,0.028|
1,4,5.2|
2,0,6.4|
2,1,4.1|
2,3,1.4|
2,4,4.9|
3,0,6.3|
3,1,8.4|
3,2,2.1|
3,4,8.4|
4,0,5.3|
4,1,2.9|
4,2,1.8|
4,3,8.6|
];
constraint_x10_x1=[
0,1,9.4|
0,2,8.9|
0,3,7.3|
0,4,0.88|
1,0,7.2|
1,2,8.6|
1,3,4.4|
1,4,0.11|
2,0,2.2|
2,1,3.7|
2,3,0.95|
2,4,8.9|
3,0,6.1|
3,1,0.31|
3,2,9.2|
3,4,1.1|
4,0,2.7|
4,1,1.5|
4,2,7.8|
4,3,9.7|
];
constraint_x10_x5=[
0,1,6.2|
0,2,5.4|
0,3,4.1|
0,4,6.9|
1,0,3.9|
1,2,6|
1,3,8.4|
1,4,7.6|
2,0,5.7|
2,1,9.5|
2,3,0.25|
2,4,4.5|
3,0,4.9|
3,1,9.1|
3,2,2.6|
3,4,8.3|
4,0,4.4|
4,1,9.1|
4,2,8.5|
4,3,2.8|
];
constraint_x1_y1=[
0,0,3.5|
0,1,9|
0,2,6.3|
0,3,6.9|
0,4,0.91|
1,0,7.5|
1,1,6.9|
1,2,4|
1,3,6.2|
1,4,9.8|
2,0,4.5|
2,1,9.2|
2,2,5.5|
2,3,9.2|
2,4,5.3|
3,0,9.2|
3,1,5.7|
3,2,4.8|
3,3,2|
3,4,5.8|
4,0,5.1|
4,1,5.9|
4,2,7.6|
4,3,2|
4,4,0.49|
];
constraint_x2_y2=[
0,0,3.5|
0,1,0.72|
0,2,9.8|
0,3,3.3|
0,4,7.1|
1,0,7.2|
1,1,3.3|
1,2,4.6|
1,3,1|
1,4,6.3|
2,0,5.1|
2,1,6.3|
2,2,5.3|
2,3,4.2|
2,4,9|
3,0,8.7|
3,1,5.7|
3,2,0.61|
3,3,6.5|
3,4,0.9|
4,0,4.3|
4,1,7.6|
4,2,9|
4,3,6.2|
4,4,4.7|
];
constraint_x3_y3=[
0,0,6|
0,1,0.44|
0,2,5|
0,3,8.2|
0,4,9.8|
1,0,5.1|
1,1,0.24|
1,2,0.38|
1,3,6.4|
1,4,2.3|
2,0,5.5|
2,1,5.7|
2,2,5.8|
2,3,2.3|
2,4,2.4|
3,0,1.4|
3,1,6.8|
3,2,5.8|
3,3,6.4|
3,4,1.1|
4,0,6.4|
4,1,9.7|
4,2,7.7|
4,3,5.3|
4,4,6.8|
];
constraint_x4_y4=[
0,0,0.98|
0,1,4.8|
0,2,9.9|
0,3,6.4|
0,4,5.4|
1,0,6.7|
1,1,9.5|
1,2,4.6|
1,3,0.6|
1,4,0.9|
2,0,0.045|
2,1,1.6|
2,2,7.6|
2,3,6.9|
2,4,6.6|
3,0,7.5|
3,1,2.2|
3,2,7|
3,3,8|
3,4,0.94|
4,0,8.4|
4,1,9.9|
4,2,1.4|
4,3,1.4|
4,4,9.9|
];
constraint_x5_y5=[
0,0,5|
0,1,4.6|
0,2,8.7|
0,3,4.5|
0,4,8.4|
1,0,9.5|
1,1,1.5|
1,2,5.2|
1,3,5.2|
1,4,8.6|
2,0,3.7|
2,1,9.9|
2,2,2|
2,3,9|
2,4,2.3|
3,0,3.9|
3,1,4.3|
3,2,8|
3,3,8.5|
3,4,9.1|
4,0,4.3|
4,1,1.4|
4,2,4.9|
4,3,0.82|
4,4,1.1|
];
initial_distribution_y1=[0.2,0.058,0.03,0.34,0.37];
initial_distribution_y2=[0.24,0.2,0.1,0.14,0.31];
initial_distribution_y3=[0.24,0.16,0.31,0.23,0.052];
initial_distribution_y4=[0.22,0.11,0.2,0.3,0.17];
initial_distribution_y5=[0.28,0.15,0.1,0.32,0.14];
transition_y1=[
0.097,0.18,0.27,0.19,0.26|
0.17,0.037,0.44,0.22,0.14|
0.36,0.076,0.33,0.13,0.099|
0.2,0.31,0.032,0.34,0.13|
0.25,0.11,0.23,0.33,0.078|
];
transition_y2=[
0.19,0.27,0.19,0.27,0.07|
0.11,0.37,0.34,0.12,0.055|
0.24,0.3,0.35,0.044,0.054|
0.2,0.16,0.31,0.18,0.15|
0.072,0.095,0.47,0.14,0.22|
];
transition_y3=[
0.38,0.22,0.063,0.15,0.19|
0.2,0.2,0.074,0.25,0.28|
0.15,0.21,0.18,0.19,0.27|
0.19,0.27,0.07,0.27,0.2|
0.27,0.28,0.067,0.35,0.038|
];
transition_y4=[
0.23,0.046,0.22,0.24,0.27|
0.23,0.14,0.18,0.22,0.23|
0.26,0.32,0.14,0.023,0.25|
0.1,0.093,0.2,0.28,0.33|
0.32,0.2,0.11,0.34,0.036|
];
transition_y5=[
0.15,0.26,0.24,0.19,0.15|
0.01,0.16,0.24,0.46,0.13|
0.27,0.23,0.13,0.37,0.012|
0.012,0.17,0.31,0.17,0.34|
0.0097,0.25,0.14,0.32,0.28|
];
